data/CVRPLIB/Vrp-Set-XML100/instances/XML100_1112_24.vrp
NAME : XML100_1112_24
COMMENT : Generated by Queiroga, Sadykov, Uchoa, and Vidal (2021)
TYPE : CVRP
DIMENSION : 101
EDGE_WEIGHT_TYPE : EUC_2D
CAPACITY : 6
NODE_COORD_SECTION
1    162  822 
2    177  616 
3    84   67  
4    507  565 
5    678  726 
6    814  926 
7    927  590 
8    931  756 
9    28   258 
10   942  847 
11   586  360 
12   960  283 
13   571  654 
14   403  858 
15   435  731 
16   997  404 
17   984  117 
18   16   776 
19   539  524 
20   356  795 
21   409  743 
22   548  629 
23   887  294 
24   193  761 
25   988  777 
26   961  112 
27   16   832 
28   470  907 
29   804  193 
30   413  53  
31   568  644 
32   72   484 
33   729  587 
34   765  328 
35   932  644 
36   178  358 
37   604  513 
38   592  175 
39   53   465 
40   5    131 
41   386  320 
42   615  769 
43   527  9   
44   231  552 
45   983  830 
46   478  815 
47   927  397 
48   367  786 
49   968  732 
50   324  607 
51   536  596 
52   729  478 
53   409  205 
54   856  656 
55   557  501 
56   987  464 
57   481  147 
58   279  783 
59   581  636 
60   979  820 
61   472  809 
62   415  201 
63   141  825 
64   987  825 
65   868  215 
66   686  553 
67   3    954 
68   274  738 
69   1    667 
70   983  552 
71   87   585 
72   11   660 
73   438  838 
74   905  550 
75   459  75  
76   464  959 
77   580  561 
78   154  523 
79   27   421 
80   16   434 
81   927  614 
82   858  225 
83   534  784 
84   927  762 
85   948  486 
86   785  112 
87   968  208 
88   826  819 
89   450  117 
90   213  979 
91   224  160 
92   831  839 
93   786  997 
94   763  652 
95   640  422 
96   48   274 
97   785  107 
98   984  853 
99   816  91  
100  704  669 
101  160  860 
DEMAND_SECTION
1    0   
2    1   
3    1   
4    1   
5    1   
6    1   
7    1   
8    1   
9    1   
10   1   
11   1   
12   1   
13   1   
14   1   
15   1   
16   1   
17   1   
18   1   
19   1   
20   1   
21   1   
22   1   
23   1   
24   1   
25   1   
26   1   
27   1   
28   1   
29   1   
30   1   
31   1   
32   1   
33   1   
34   1   
35   1   
36   1   
37   1   
38   1   
39   1   
40   1   
41   1   
42   1   
43   1   
44   1   
45   1   
46   1   
47   1   
48   1   
49   1   
50   1   
51   1   
52   1   
53   1   
54   1   
55   1   
56   1   
57   1   
58   1   
59   1   
60   1   
61   1   
62   1   
63   1   
64   1   
65   1   
66   1   
67   1   
68   1   
69   1   
70   1   
71   1   
72   1   
73   1   
74   1   
75   1   
76   1   
77   1   
78   1   
79   1   
80   1   
81   1   
82   1   
83   1   
84   1   
85   1   
86   1   
87   1   
88   1   
89   1   
90   1   
91   1   
92   1   
93   1   
94   1   
95   1   
96   1   
97   1   
98   1   
99   1   
100  1   
101  1   
DEPOT_SECTION
1
-1
EOF
