data/CVRPLIB/Vrp-Set-XML100/solutions/XML100_1112_24.sol
Route #1: 95 8 39 2 90 35
Route #2: 79 78 38 31 77 43
Route #3: 60 82 12 30 58 21
Route #4: 9 97 44 63 59 24
Route #5: 32 73 69 6 80 34
Route #6: 13 72 45 27 75 89
Route #7: 40 52 61 10 94 36
Route #8: 100 66 26 62
Route #9: 33 81 64 98 96 85
Route #10: 67 14 20 47 19 57
Route #11: 28 25 16 86 11 22
Route #12: 41 4 87 91 5 92
Route #13: 83 7 48 53 93 99
Route #14: 23 1 70 71 68 17
Route #15: 49 3 18 54 76 50
Route #16: 37 42 29 74 88 56
Route #17: 51 46 15 55 84 65
Cost 23904
